$molecule
-1 1
--
0 1
O 0.03997106221714941 -0.3951822941485965 -0.3604180775858108
H 0.7345150151171495 -0.13870651794859595 0.24818517271418924
H 0.5099777684171495 -1.0541391730485958 -0.9235183881858108
--
-1 1
Cl 1.9470216083828507 -2.395455187251404 -1.8572091908141892
$end

$rem
  JOBTYPE EDA
  EDA2 1
  method wB97X-V
  BASIS def2-qzvppd
  XC_GRID 000099000590
  NL_GRID 1
  UNRESTRICTED FALSE
  MAX_SCF_CYCLES 200
  SYMMETRY FALSE
  SYM_IGNORE TRUE
  mem_total  16000
  BASIS_LIN_DEP_THRESH 8
  THRESH 14
  SCF_CONVERGENCE 7
  SCF_PRINT_FRGM TRUE
$end
